S = 7;
start = [|0,23,0,8,41,0,19,0,35,0,11,12,20,3,0,33,10,0,0,4,0,0,0,0,0,0,0,0,24,0,0,0,0,0,0,7,0,45,17,0,0,30,0,0,2,0,0,0,22|
0,0,0,21,37,6,0,4,0,36,0,0,0,8,5,3,13,0,0,0,0,0,9,0,0,20,0,16,7,0,40,0,19,23,0,0,0,0,0,44,24,0,0,0,34,0,0,0,0|
0,35,0,29,15,0,0,0,0,19,0,7,43,26,40,8,27,0,0,0,36,30,0,31,0,0,0,0,41,0,20,0,1,0,39,18,0,34,0,23,10,33,11,0,0,0,0,0,24|
0,2,0,0,20,0,33,0,0,0,0,0,0,0,0,0,0,16,0,18,46,0,39,23,0,0,0,0,6,12,0,0,0,0,10,0,0,0,0,0,38,0,26,48,45,36,28,44,0|
0,9,0,1,0,0,18,0,0,0,40,0,16,0,0,0,43,0,0,0,0,0,17,15,8,10,0,0,0,0,0,45,0,11,26,36,6,19,3,0,0,47,0,0,27,14,0,0,0|
45,46,0,48,39,0,13,0,23,0,10,0,0,33,42,0,0,9,0,0,30,0,0,0,24,0,0,18,14,32,0,0,0,3,0,0,0,0,5,0,22,0,0,0,0,0,0,0,0|
10,0,25,0,7,0,0,0,9,31,0,0,27,48,0,0,0,0,0,0,0,38,0,19,0,28,0,0,0,0,17,49,18,0,0,0,15,0,0,0,42,0,0,0,0,0,0,0,1|
8,0,43,0,0,29,25,0,0,0,0,0,0,0,0,0,0,0,0,0,0,46,23,0,0,0,0,0,4,49,16,0,0,38,20,0,0,0,10,12,33,0,0,28,0,44,0,0,21|
49,13,0,42,34,0,39,0,19,0,43,2,14,0,0,40,0,0,0,0,0,0,30,0,0,31,0,0,0,0,0,0,6,0,0,0,0,0,29,0,0,28,0,0,0,0,0,12,0|
0,4,0,0,44,33,17,1,0,0,0,0,0,0,0,0,2,37,0,0,43,0,0,38,0,0,0,0,0,36,0,3,0,42,0,0,0,0,0,30,0,0,0,0,29,20,0,45,35|
0,10,35,30,0,0,41,0,0,0,0,0,32,0,11,19,0,0,0,0,0,0,4,0,49,0,0,22,0,29,0,2,5,0,0,44,23,0,0,0,16,0,0,0,0,0,0,42,38|
0,0,0,0,0,0,0,36,0,0,0,0,46,0,9,0,0,7,0,20,0,0,0,45,16,0,0,0,0,0,37,0,33,0,0,0,34,1,0,0,19,0,0,25,0,0,0,48,0|
0,5,0,0,0,0,0,0,13,0,44,0,0,0,0,0,41,0,0,0,0,0,0,17,0,0,0,20,0,0,0,14,32,0,0,0,42,0,0,0,25,0,0,2,0,7,0,30,0|
0,0,0,0,14,0,16,0,0,49,0,40,25,0,3,0,0,32,0,0,0,0,12,24,0,0,6,36,35,18,10,0,46,0,0,26,43,0,22,0,0,0,0,0,23,31,47,0,13|
0,0,0,5,0,18,24,40,29,42,0,0,30,9,0,0,0,0,0,11,7,0,0,0,47,0,15,0,0,0,0,0,0,0,13,0,0,32,0,43,6,0,0,0,25,38,27,10,2|
4,0,0,0,0,0,0,34,0,25,0,0,0,0,38,0,0,0,48,0,18,0,42,43,30,0,0,0,0,0,0,31,14,6,0,0,0,0,0,0,0,0,45,0,0,0,0,0,40|
0,0,0,16,0,0,0,7,39,0,24,0,0,0,33,0,35,0,27,0,23,0,0,0,0,0,0,46,36,4,0,38,0,0,30,0,0,0,19,0,0,0,0,0,0,0,12,18,14|
0,0,0,38,0,0,0,41,33,8,0,43,0,0,0,0,0,0,12,0,0,37,35,0,0,0,19,0,16,25,0,0,26,0,0,0,2,0,27,0,13,0,0,0,42,0,0,46,17|
0,0,26,0,0,0,0,0,0,35,0,27,37,0,30,0,0,0,0,0,0,13,0,0,32,0,0,0,2,0,0,0,0,19,0,0,0,15,20,0,0,49,0,0,0,0,11,0,44|
0,0,39,6,0,0,0,26,2,10,12,23,18,49,0,9,0,13,0,3,0,21,0,0,0,38,0,27,0,0,0,44,0,0,0,1,0,0,36,17,0,0,48,0,0,0,15,0,41|
0,0,0,33,49,12,0,0,0,0,0,0,19,16,0,0,0,0,0,0,40,0,20,0,0,6,8,0,0,0,0,11,34,1,0,0,0,18,0,7,5,0,0,35,0,0,0,0,43|
0,0,0,0,16,38,23,0,24,0,0,5,0,0,29,0,0,0,0,0,0,0,0,0,0,0,41,30,0,0,0,0,0,0,0,0,49,0,0,0,0,0,0,0,0,0,0,35,0|
36,0,41,0,26,0,0,0,0,0,0,0,0,18,0,0,0,0,0,0,0,0,0,47,5,0,0,0,28,0,0,40,0,0,4,0,0,0,0,0,0,20,39,0,0,27,0,0,0|
0,29,6,0,9,0,0,0,44,0,0,0,0,20,7,0,46,0,0,49,42,11,33,0,0,0,24,0,21,0,0,0,0,0,35,0,18,0,0,0,0,0,0,0,0,0,0,0,0|
39,28,0,0,47,0,43,0,0,0,0,0,0,0,0,0,0,0,0,0,0,0,0,9,0,0,0,0,49,0,36,0,0,34,31,0,0,48,8,0,1,0,0,0,0,0,0,15,0|
0,0,0,0,0,32,0,0,0,0,1,0,0,0,25,0,0,0,6,31,47,0,0,16,0,19,0,8,0,0,0,27,38,0,33,0,0,0,0,0,45,0,28,0,5,48,0,41,49|
0,40,4,0,0,0,31,21,0,0,0,0,13,38,0,32,30,2,0,5,0,0,0,0,0,26,0,0,0,0,48,8,24,0,0,0,0,0,0,0,44,0,3,0,0,0,0,1,0|
12,0,0,0,0,49,7,29,0,22,41,0,0,45,0,0,0,0,0,13,0,0,0,3,0,0,0,21,25,37,1,0,0,0,14,0,0,0,0,0,0,0,43,46,0,0,40,0,0|
0,0,0,9,0,0,0,10,0,0,0,0,0,1,0,0,26,0,46,0,0,0,0,0,0,0,0,0,0,13,2,0,25,0,0,0,0,0,0,0,23,0,0,15,0,0,0,0,0|
0,0,0,0,40,35,1,30,0,0,0,33,0,0,37,0,6,0,0,0,0,0,0,32,23,42,0,31,0,0,0,0,16,0,0,0,0,26,0,0,0,0,0,0,0,0,41,14,0|
0,0,0,0,0,0,0,0,0,28,5,47,12,0,10,0,0,0,13,0,16,0,6,0,0,0,0,0,44,0,0,0,23,0,0,0,0,0,15,25,0,0,30,0,35,0,0,0,20|
13,45,24,0,0,0,0,0,0,46,0,39,0,0,43,0,0,27,20,9,0,0,0,0,0,34,4,25,37,0,3,26,21,0,0,0,0,7,0,28,30,6,1,0,0,0,32,0,0|
0,0,0,0,38,0,0,0,49,0,0,0,8,0,45,0,0,14,1,0,0,3,0,0,21,0,0,0,20,0,47,0,0,29,0,0,33,42,4,41,35,0,6,7,0,26,0,0,0|
0,0,3,0,23,0,10,9,31,0,7,35,38,0,0,0,42,29,0,0,34,0,0,36,0,0,0,0,17,48,32,41,0,0,27,37,0,16,1,0,43,13,0,0,0,0,0,0,0|
34,39,0,0,0,0,46,13,0,0,0,0,41,0,0,0,0,0,47,0,0,0,5,0,0,0,0,35,0,11,0,0,0,0,42,0,0,0,32,0,0,0,0,0,49,23,0,0,0|
0,0,8,35,19,0,0,0,27,7,33,0,0,0,0,42,37,0,0,0,0,0,16,0,0,18,0,0,0,0,28,6,0,24,0,0,46,0,0,40,0,0,0,45,0,0,0,0,4|
0,0,0,0,0,15,4,0,8,0,29,0,0,0,31,28,0,0,0,47,25,0,0,0,33,0,26,0,0,0,0,21,37,0,0,13,7,0,0,6,41,45,0,12,0,0,39,43,32|
0,0,0,12,32,23,0,46,38,4,0,6,9,0,0,0,0,0,0,0,41,0,40,27,0,29,0,24,0,14,0,33,0,0,0,0,0,44,35,31,0,21,18,0,0,0,30,0,28|
11,26,22,46,29,0,0,0,37,0,0,34,40,23,0,6,0,0,0,0,0,45,0,21,0,0,3,5,0,0,38,0,0,0,0,0,48,0,0,0,4,39,0,44,13,0,25,0,0|
31,14,49,47,1,0,0,0,0,0,0,0,21,0,0,0,0,0,0,0,0,0,0,20,15,4,0,0,34,46,18,0,0,0,0,0,0,0,0,0,28,19,41,0,0,0,23,27,0|
5,48,33,0,0,0,0,0,0,0,35,0,0,0,15,46,4,22,0,0,0,0,0,0,0,41,0,0,0,0,0,0,0,45,0,0,0,0,0,1,0,0,17,0,0,0,0,0,0|
0,25,9,37,18,40,0,0,0,1,0,15,11,0,0,0,0,0,10,0,44,0,0,0,0,0,38,32,26,0,0,42,0,0,48,22,0,29,0,0,0,2,0,0,46,0,5,0,0|
2,0,0,0,8,0,26,0,20,12,0,0,0,30,0,0,21,0,0,48,17,0,0,0,0,0,0,0,0,41,0,0,0,0,7,0,0,0,0,0,0,0,0,0,0,45,44,0,10|
0,31,29,0,0,0,35,16,0,0,0,0,0,0,0,0,0,10,45,2,0,0,0,49,14,0,0,0,0,0,0,0,0,0,21,0,0,0,0,48,0,0,0,19,0,39,0,0,0|
0,0,0,0,0,0,0,8,0,0,0,24,0,0,1,0,0,0,18,0,0,28,0,0,19,45,0,0,0,5,0,0,0,14,0,0,13,0,0,0,0,0,0,0,0,0,0,0,0|
0,18,0,44,45,0,3,5,0,0,39,0,0,0,0,0,0,0,0,0,19,0,0,0,29,0,0,6,38,0,0,25,0,33,28,0,0,2,0,4,0,0,0,0,0,43,48,26,47|
16,7,0,0,4,14,0,0,0,0,45,0,42,44,28,36,5,40,43,0,32,0,0,48,1,0,0,0,18,6,0,37,0,0,0,0,35,0,0,0,8,0,13,17,38,0,0,0,0|
0,37,0,0,0,0,0,0,0,3,0,0,0,0,0,0,0,6,0,42,0,0,22,0,0,0,18,34,48,0,0,17,0,0,0,33,21,23,0,0,29,14,0,0,40,16,0,0,0|
33,0,0,0,0,24,36,0,43,0,0,0,7,0,13,0,0,0,41,0,3,0,0,0,0,0,0,0,0,0,0,0,40,0,12,5,0,17,0,46,0,0,0,0,0,21,0,23,0|];